c   #vars: 130   #clauses: 578   #literals: 1562
c 
p cnf 130 578
-1 -2 0
-3 -4 0
-5 -6 0
-7 -8 0
-9 -10 0
-11 -12 0
-13 -14 0
-15 -16 0
-17 -18 0
-19 -20 0
-21 -22 0
26 53 54 -81 0
-24 -25 0
33 36 37 -80 0
-27 -28 0
-29 -30 0
-31 -32 0
48 92 93 -108 0
-34 -35 0
-36 -37 0
-38 -39 0
-40 -41 0
-42 -43 0
-44 -45 0
-46 -47 0
38 39 61 -68 0
-49 -50 0
-51 -52 0
-53 -54 0
-55 -56 0
108 109 125 126 0
-57 -58 0
-59 -60 0
7 8 76 -122 0
-62 -63 0
-64 -65 0
-66 -67 0
-68 -69 0
-70 -71 0
-72 -73 0
-74 -75 0
34 35 127 128 0
100 101 127 128 0
13 14 79 -102 0
-77 -78 0
-104 114 117 118 0
112 113 129 130 0
127 128 129 130 0
62 63 94 95 0
-80 -81 0
-82 -83 0
-84 -85 0
-86 -87 0
-88 -89 0
-90 -91 0
-92 -93 0
-94 -95 0
-96 -97 0
-98 -99 0
-100 -101 0
-102 -103 0
-104 -105 0
-106 -107 0
-108 -109 0
-110 -111 0
-112 -113 0
-51 119 127 128 0
51 52 84 85 0
-115 -116 0
-117 -118 0
-76 96 97 122 0
7 8 9 10 0
-120 -121 0
9 10 11 12 0
-123 -124 0
-125 -126 0
-127 -128 0
1 2 110 111 0
-129 -130 0
-1 -3 0
-2 -4 0
11 12 42 43 0
-1 -34 0
-2 -35 0
36 37 57 58 0
-1 -49 0
-2 -50 0
53 54 110 111 0
-1 -62 0
-2 -63 0
64 65 86 87 0
-1 -72 0
-2 -73 0
72 73 96 97 0
-1 -82 0
-2 -83 0
27 28 112 113 0
-1 -110 0
-2 -111 0
62 63 120 121 0
-3 -13 0
-4 -14 0
55 56 70 71 0
-3 -29 0
-4 -30 0
68 69 125 126 0
-3 -82 0
-4 -83 0
102 103 115 116 0
-5 -51 0
-6 -52 0
57 58 74 75 0
-5 -53 0
-6 -54 0
62 63 64 65 0
-5 -55 0
-6 -56 0
46 47 68 69 0
-5 -122 0
13 14 123 124 0
-7 -9 0
-8 -10 0
96 97 115 116 0
-46 48 92 93 0
-8 -33 0
42 43 80 81 0
-7 -70 0
-8 -71 0
68 69 72 73 0
13 14 -74 79 0
-8 -76 0
21 22 92 93 0
-7 -84 0
-8 -85 0
21 22 24 25 0
-7 -100 0
-8 -101 0
82 83 115 116 0
-9 -11 0
-10 -12 0
3 4 13 14 0
-9 -29 0
-10 -30 0
104 105 114 -117 0
-9 -68 0
-10 -69 0
21 22 68 69 0
-9 -74 0
-10 -75 0
57 58 108 109 0
-11 -42 0
-12 -43 0
-11 -66 0
-12 -67 0
31 32 94 95 0
-11 -94 0
-12 -95 0
82 83 123 124 0
51 52 110 111 0
-13 -44 0
-14 -45 0
57 58 129 130 0
-13 -51 0
-14 -52 0
74 75 98 99 0
-88 114 117 118 0
-14 -79 0
29 30 84 85 0
-13 -123 0
-14 -124 0
77 78 129 130 0
-15 -59 0
-16 -60 0
46 47 125 126 0
-15 -68 0
-16 -69 0
-15 -104 0
-16 -105 0
53 54 64 65 0
-15 -108 0
-16 -109 0
1 2 3 4 0
17 18 19 20 0
-17 -19 0
-18 -20 0
19 20 123 124 0
-17 -31 0
-18 -32 0
38 39 108 109 0
-17 -74 0
-18 -75 0
-24 61 68 69 0
-17 -96 0
-18 -97 0
-17 -115 0
-18 -116 0
24 25 123 124 0
-19 -21 0
-20 -22 0
24 25 88 89 0
-19 -82 0
-20 -83 0
-19 -104 0
-20 -105 0
-19 -123 0
-20 -124 0
9 10 29 30 0
-21 -24 0
-22 -25 0
21 22 27 28 0
-21 -27 0
-22 -28 0
27 28 49 50 0
-21 -68 0
-22 -69 0
76 -97 -104 122 0
-21 -80 0
-22 -81 0
38 39 117 118 0
-21 -92 0
-22 -93 0
23 26 -54 -94 0
-23 26 53 54 0
-7 33 36 37 0
42 43 115 116 0
26 -54 80 81 0
-23 -63 0
55 56 98 99 0
-23 26 80 81 0
-23 -95 0
53 54 100 101 0
7 8 76 -104 0
-25 -61 0
66 67 102 103 0
-24 -88 0
-25 -89 0
29 30 98 99 0
-24 -104 0
-25 -105 0
46 47 55 56 0
-24 -123 0
-25 -124 0
15 16 104 105 0
-26 -53 0
33 -36 80 81 0
92 93 115 116 0
-26 -80 0
-7 33 80 81 0
57 58 102 103 0
-27 -49 0
-28 -50 0
31 32 120 121 0
-27 -66 0
-28 -67 0
-27 -70 0
-28 -71 0
31 32 44 45 0
-27 -100 0
-28 -101 0
17 18 31 32 0
-27 -112 0
-28 -113 0
48 -92 108 109 0
-29 -49 0
-30 -50 0
11 12 66 67 0
-29 -84 0
-30 -85 0
-29 -98 0
-30 -99 0
44 45 49 50 0
-31 -44 0
-32 -45 0
-31 -77 0
-32 -78 0
31 32 77 78 0
-31 -84 0
-32 -85 0
23 26 -81 -94 0
-31 -94 0
-32 -95 0
7 8 70 71 0
-31 -120 0
-32 -121 0
5 6 51 52 0
46 47 48 -108 0
-33 -37 0
-7 76 104 105 0
46 47 48 -92 0
-33 -81 0
51 52 53 54 0
-34 -59 0
-35 -60 0
19 20 104 105 0
-34 -112 0
-35 -113 0
-13 74 75 79 0
-34 -127 0
-35 -128 0
38 39 106 107 0
-36 -57 0
-37 -58 0
38 39 90 91 0
-36 -86 0
-37 -87 0
76 104 105 -122 0
-36 -110 0
-37 -111 0
23 -26 94 95 0
-36 -125 0
-37 -126 0
92 93 108 109 0
-39 -61 0
11 12 94 95 0
-38 -90 0
-39 -91 0
-6 -7 76 122 0
-38 -106 0
-39 -107 0
40 41 106 107 0
-38 -108 0
-39 -109 0
40 41 59 60 0
-38 -117 0
-39 -118 0
-40 -51 0
-41 -52 0
24 25 104 105 0
-40 -59 0
-41 -60 0
13 14 44 45 0
-40 -64 0
-41 -65 0
-6 76 -104 122 0
64 65 115 116 0
-40 -106 0
-41 -107 0
-42 -44 0
-43 -45 0
-7 76 -97 122 0
-42 -80 0
-43 -81 0
-42 -115 0
-43 -116 0
29 30 49 50 0
-44 -49 0
-45 -50 0
-6 96 97 122 0
-45 -119 0
-24 38 39 61 0
-47 -48 0
34 35 59 60 0
-46 -55 0
-47 -56 0
15 16 59 60 0
-46 -68 0
-47 -69 0
9 10 68 69 0
-46 -125 0
-47 -126 0
23 63 -94 0
24 25 61 -68 0
-48 -93 0
3 4 29 30 0
24 25 -38 61 0
-48 -109 0
1 2 72 73 0
-49 -62 0
-50 -63 0
53 54 55 56 0
-51 -53 0
-52 -54 0
96 97 104 105 0
-51 -84 0
-52 -85 0
92 93 112 113 0
-51 -110 0
-52 -111 0
1 2 34 35 0
5 6 -97 122 0
-52 -119 0
1 2 82 83 0
-51 -129 0
-52 -130 0
55 56 110 111 0
-53 -55 0
-54 -56 0
72 73 88 89 0
-53 -64 0
-54 -65 0
-53 -100 0
-54 -101 0
90 91 112 113 0
-53 -110 0
-54 -111 0
-55 -70 0
-56 -71 0
1 2 62 63 0
-55 -84 0
-56 -85 0
51 52 129 130 0
-55 -98 0
-56 -99 0
34 35 112 113 0
-55 -110 0
-56 -111 0
66 67 96 97 0
40 41 64 65 0
-57 -74 0
-58 -75 0
23 -62 95 0
-57 -102 0
-58 -103 0
40 41 51 52 0
-57 -108 0
-58 -109 0
-88 104 105 114 0
-57 -129 0
-58 -130 0
49 50 62 63 0
-59 -120 0
-60 -121 0
21 22 80 81 0
-61 -69 0
17 18 115 116 0
-62 -64 0
-63 -65 0
84 85 86 87 0
-62 -94 0
-63 -95 0
74 75 79 -102 0
-62 -120 0
-63 -121 0
5 6 55 56 0
-64 -86 0
-65 -87 0
-64 -115 0
-65 -116 0
82 83 117 118 0
-66 -77 0
-67 -78 0
27 28 100 101 0
-66 -96 0
-67 -97 0
9 10 74 75 0
-66 -102 0
-67 -103 0
15 16 108 109 0
-66 -106 0
-67 -107 0
-46 48 108 109 0
-66 -120 0
-67 -121 0
36 37 86 87 0
-68 -72 0
-69 -73 0
-68 -74 0
-69 -75 0
-68 -125 0
-69 -126 0
27 28 70 71 0
-70 -84 0
-71 -85 0
23 -26 62 63 0
-72 -88 0
-73 -89 0
86 87 88 89 0
-72 -96 0
-73 -97 0
-44 51 52 119 0
-72 -108 0
-73 -109 0
72 73 108 109 0
88 89 114 -117 0
-75 -79 0
31 32 84 85 0
66 67 77 78 0
7 8 33 -36 0
17 18 74 75 0
-74 -98 0
-75 -99 0
42 43 44 45 0
7 8 84 85 0
-74 79 102 103 0
-76 -105 0
70 71 84 85 0
-13 79 102 103 0
23 26 -62 -81 0
-77 -90 0
-78 -91 0
86 87 120 121 0
-77 -117 0
-78 -118 0
19 20 82 83 0
-77 -129 0
-78 -130 0
88 89 -104 114 0
-79 -103 0
55 56 84 85 0
19 20 21 22 0
7 8 33 -80 0
17 18 96 97 0
-82 -115 0
-83 -116 0
59 60 120 121 0
-82 -117 0
-83 -118 0
-82 -123 0
-83 -124 0
-38 61 68 69 0
-84 -86 0
-85 -87 0
3 4 82 83 0
-86 -88 0
-87 -89 0
13 14 51 52 0
-86 -120 0
-87 -121 0
100 101 129 130 0
-44 119 127 128 0
-89 -114 0
27 28 66 67 0
-90 -112 0
-91 -113 0
77 78 117 118 0
-90 -117 0
-91 -118 0
90 91 117 118 0
-92 -108 0
-93 -109 0
51 52 119 -127 0
-92 -112 0
-93 -113 0
-92 -115 0
-93 -116 0
7 8 100 101 0
-96 -104 0
-97 -105 0
98 99 100 101 0
-96 -115 0
-97 -116 0
77 78 90 91 0
-96 -122 0
66 67 106 107 0
-98 -100 0
-99 -101 0
36 37 110 111 0
-100 -127 0
-101 -128 0
23 26 -54 -62 0
-100 -129 0
-101 -130 0
1 2 49 50 0
-102 -115 0
-103 -116 0
68 69 74 75 0
44 45 119 -127 0
-105 -114 0
15 16 68 69 0
-106 -125 0
-107 -126 0
112 113 127 128 0
-108 -125 0
-109 -126 0
36 37 125 126 0
-112 -127 0
-113 -128 0
106 107 125 126 0
-112 -129 0
-113 -130 0
66 67 120 121 0
44 45 -51 119 0
-114 -118 0
5 6 53 54 0
5 6 -76 122 0
-119 -128 0
-127 -129 0
-128 -130 0
